
Gurobi 11.0.1 (win64) logging started Mon Apr  1 12:24:27 2024

Set parameter LogFile to value "C:\Projetos\Job_Rotation_Algorithms\Outputs\GurobiLogs\gurobi_log-output-21_hes-c220-CostaMirallesModel-NoExtraConstraint-2.log"
Gurobi Optimizer version 11.0.1 build v11.0.1rc0 (win64 - Windows 10.0 (19045.2))

CPU model: 11th Gen Intel(R) Core(TM) i7-1165G7 @ 2.80GHz, instruction set [SSE2|AVX|AVX2|AVX512]
Thread count: 4 physical cores, 8 logical processors, using up to 1 threads


Gurobi 11.0.1 (win64) logging started Mon Apr  1 16:28:37 2024

Set parameter LogFile to value "C:\Projetos\Job_Rotation_Algorithms\Outputs\GurobiLogs\gurobi_log-output-21_hes-c220-CostaMirallesModel-NoExtraConstraint-2.log"
Gurobi Optimizer version 11.0.1 build v11.0.1rc0 (win64 - Windows 10.0 (19045.2))

CPU model: 11th Gen Intel(R) Core(TM) i7-1165G7 @ 2.80GHz, instruction set [SSE2|AVX|AVX2|AVX512]
Thread count: 4 physical cores, 8 logical processors, using up to 1 threads

WLS license 901039 - registered to Bitka Analytics
Optimize a model with 474 rows, 889 columns and 7253 nonzeros
Model fingerprint: 0xbf81bc81
Variable types: 2 continuous, 887 integer (887 binary)
Coefficient statistics:
  Matrix range     [1e+00, 2e+02]
  Objective range  [1e+00, 1e+00]
  Bounds range     [1e+00, 4e+02]
  RHS range        [1e+00, 4e+02]
Presolve removed 127 rows and 81 columns
Presolve time: 0.05s
Presolved: 347 rows, 808 columns, 5025 nonzeros
Variable types: 0 continuous, 808 integer (807 binary)

Root relaxation: objective 5.600000e+01, 370 iterations, 0.01 seconds (0.00 work units)

    Nodes    |    Current Node    |     Objective Bounds      |     Work
 Expl Unexpl |  Obj  Depth IntInf | Incumbent    BestBd   Gap | It/Node Time

     0     0   56.00000    0   16          -   56.00000      -     -    0s
     0     0   56.00000    0  160          -   56.00000      -     -    0s
     0     0   56.00000    0  120          -   56.00000      -     -    0s
     0     0   56.00000    0   23          -   56.00000      -     -    0s
     0     0   56.00000    0   29          -   56.00000      -     -    0s
     0     0   56.00000    0   23          -   56.00000      -     -    0s
     0     0   56.00000    0   37          -   56.00000      -     -    0s
     0     0   56.00000    0    8          -   56.00000      -     -    0s
     0     0   56.00000    0   59          -   56.00000      -     -    0s
     0     0   56.00000    0   36          -   56.00000      -     -    0s
     0     0   56.00000    0   26          -   56.00000      -     -    0s
     0     2   56.00000    0   26          -   56.00000      -     -    0s
*  148    81              37      48.0000000   56.00000  16.7%  39.8    0s
H  152    71                      49.0000000   56.00000  14.3%  38.8    0s
H  472   130                      50.0000000   56.00000  12.0%  42.8    1s
H  524   127                      51.0000000   56.00000  9.80%  44.3    1s
H  867   185                      52.0000000   56.00000  7.69%  49.1    1s
H  871   174                      53.0000000   56.00000  5.66%  49.0    1s
* 1355   135              30      54.0000000   56.00000  3.70%  64.3    3s
* 1387    58              13      55.0000000   56.00000  1.82%  65.6    3s
  1480    44 infeasible   23        55.00000   56.00000  1.82%  15.6    5s

Cutting planes:
  Cover: 30
  Clique: 24
  MIR: 2
  Flow cover: 4
  GUB cover: 5
  Zero half: 2

Explored 1564 nodes (135783 simplex iterations) in 5.65 seconds (5.01 work units)
Thread count was 1 (of 8 available processors)

Solution count 8: 55 54 53 ... 48

Optimal solution found (tolerance 1.00e-03)
Best objective 5.500000000000e+01, best bound 5.500000000000e+01, gap 0.0000%
